 &BANDS
    outdir='./tmp/band/'
    prefix='SrVO3'
    filband='band'
 /