 &control
    calculation='scf'
    restart_mode='from_scratch'
    tstress = .true.
    tprnfor = .true.
    wf_collect = .true.
    prefix = 'SrVO3'
    pseudo_dir = '/path/to/pseudopotential/sg15/' 
    outdir = './tmp/scf/' 
 /
 &system
    ibrav = 0
    A=1.000000
    nat = 5
    ntyp = 3
    ecutwfc = 100
    occupations = 'smearing'
    smearing = 'gaussian'
    degauss = 0.02
    nbnd = 100
 /
 &electrons
    diagonalization = "cg"
    conv_thr =  1.0d-8
    mixing_beta = 0.3
 /
ATOMIC_SPECIES
 O  15.9994    O_ONCV_PBE_sr.upf
 Sr  87.62    Sr_ONCV_PBE_sr.upf
 V  50.9415    V_ONCV_PBE_sr.upf
CELL_PARAMETERS {alat}
   3.89782874358100   0.00000000000000   0.00000000000000
   0.00000000000000   3.89782874358100   0.00000000000000
   0.00000000000000   0.00000000000000   3.89782874358100
ATOMIC_POSITIONS {crystal} 
 O  0.00000000000000   0.50000000000000   0.00000000000000
 O  0.50000000000000   0.00000000000000   0.00000000000000
 O  0.00000000000000   0.00000000000000   0.50000000000000
 Sr  0.50000000000000   0.50000000000000   0.50000000000000
 V  0.00000000000000   0.00000000000000   0.00000000000000
K_POINTS {automatic}
 6 6 6 0 0 0 